param set_len = 60;
param target_sum = 15373748;
param values := [0] 729881 [1] 470769 [2] 719210 [3] 407375 [4] 612208 [5] 78289 [6] 696498 [7] 673159 [8] 110381 [9] 984791 [10] 898818 [11] 154354 [12] 313071 [13] 156259 [14] 718259 [15] 667678 [16] 521149 [17] 959599 [18] 738082 [19] 333977 [20] 385404 [21] 652911 [22] 476484 [23] 730494 [24] 264816 [25] 376099 [26] 737096 [27] 347409 [28] 300970 [29] 171735 [30] 677858 [31] 19185 [32] 952415 [33] 176507 [34] 37851 [35] 419540 [36] 703515 [37] 909304 [38] 375523 [39] 905967 [40] 233665 [41] 48166 [42] 902704 [43] 439946 [44] 552128 [45] 612010 [46] 676712 [47] 792941 [48] 351450 [49] 249055 [50] 937004 [51] 300847 [52] 875703 [53] 1025208 [54] 708694 [55] 978338 [56] 237216 [57] 885371 [58] 173406 [59] 985534 ;
